lp_solve/benchmarks/cnt.lp
Maximize

69 dSta_0 + 31 d0_27 + 34 d1_26.v0 + 34 d1_26.v1 + 4 d2_3.v00 + 4 d2_3.v01 + 4 d2_3.v10 + 4 d2_3.v11 + 34 d2_2.v00 + 34 d2_2.v01 + 34 d2_2.v10 + 34 d2_2.v11 + 36 d3_4.v0 + 36 d3_4.v1 + 2 d3_1.v0 + 2 d3_1.v1 + 32 d4_16 + 33 d5_12.v0 + 3 d5_12.v1 + 3 d6_7.v00 + 3 d6_7.v01 + 3 d6_7.v10 + 3 d6_7.v11 + 2 d6_8.v00 + 2 d6_8.v01 + 2 d6_8.v10 + 2 d6_8.v11 + 4 d7_9.v00 + 4 d7_9.v01 + 4 d7_9.v10 + 4 d7_9.v11 + 4 d8_9.v00 + 4 d8_9.v01 + 4 d8_9.v10 + 4 d8_9.v11 + 4 d9_10.v00 + 4 d9_10.v01 + 4 d9_10.v10 + 4 d9_10.v11 + 33 d9_6.v00 + 3 d9_6.v01 + 3 d9_6.v10 + 3 d9_6.v11 + 66 d10_11.v0 + 66 d10_11.v1 + 2 d10_5.v0 + 2 d10_5.v1 + 3 d12_13.v0 + 3 d12_13.v1 + 2 d12_14.v0 + 2 d12_14.v1 + 4 d13_15.v0 + 4 d13_15.v1 + 4 d14_15.v0 + 4 d14_15.v1 + 33 d15_6.v0 + 3 d15_6.v1 + 4 d15_10.v0 + 4 d15_10.v1 + 33 d16_22 + 3 d17_18.v0 + 3 d17_18.v1 + 2 d17_19.v0 + 2 d17_19.v1 + 4 d18_20.v0 + 4 d18_20.v1 + 4 d19_20.v0 + 4 d19_20.v1 + 32 d20_21.v0 + 32 d20_21.v1 + 33 d20_17.v0 + 3 d20_17.v1 + 2 d21_5 + 66 d21_11 + 33 d22_23 + 62 d22_24 + 32 d23_25 + 32 d24_25 + 33 d25_17 + 32 d25_21 + 34 d26_2.v0 + 34 d26_2.v1 + 4 d26_3.v0 + 4 d26_3.v1 + 34 d27_30 + 32 d28_29.v0 + 32 d28_29.v1 + 34 d28_28.v0 + 34 d28_28.v1 + 2 d29_1 + 36 d29_4 + 34 d30_28 + 32 d30_29


Subject to


\ === tcfg constraints ===
dSta_0 = 1
b0 - d0_27 = 0
b0 - dSta_0 = 0
b1 - d1_26 = 0
b1 - d3_1 - d29_1 = 0
b2 - d2_3 - d2_2 = 0
b2 - d2_2 - d26_2 = 0
b3 - d3_4 - d3_1 = 0
b3 - d2_3 - d26_3 = 0
b4 - d4_16 = 0
b4 - d3_4 - d29_4 = 0
b5 - d5_12 = 0
b5 - d10_5 - d21_5 = 0
b6 - d6_7 - d6_8 = 0
b6 - d9_6 - d15_6 = 0
b7 - d7_9 = 0
b7 - d6_7 = 0
b8 - d8_9 = 0
b8 - d6_8 = 0
b9 - d9_10 - d9_6 = 0
b9 - d7_9 - d8_9 = 0
b10 - d10_11 - d10_5 = 0
b10 - d9_10 - d15_10 = 0
b11 - d10_11 - d21_11 = 0
b12 - d12_13 - d12_14 = 0
b12 - d5_12 = 0
b13 - d13_15 = 0
b13 - d12_13 = 0
b14 - d14_15 = 0
b14 - d12_14 = 0
b15 - d15_6 - d15_10 = 0
b15 - d13_15 - d14_15 = 0
b16 - d16_22 = 0
b16 - d4_16 = 0
b17 - d17_18 - d17_19 = 0
b17 - d20_17 - d25_17 = 0
b18 - d18_20 = 0
b18 - d17_18 = 0
b19 - d19_20 = 0
b19 - d17_19 = 0
b20 - d20_21 - d20_17 = 0
b20 - d18_20 - d19_20 = 0
b21 - d21_5 - d21_11 = 0
b21 - d20_21 - d25_21 = 0
b22 - d22_23 - d22_24 = 0
b22 - d16_22 = 0
b23 - d23_25 = 0
b23 - d22_23 = 0
b24 - d24_25 = 0
b24 - d22_24 = 0
b25 - d25_17 - d25_21 = 0
b25 - d23_25 - d24_25 = 0
b26 - d26_2 - d26_3 = 0
b26 - d1_26 = 0
b27 - d27_30 = 0
b27 - d0_27 = 0
b28 - d28_29 - d28_28 = 0
b28 - d28_28 - d30_28 = 0
b29 - d29_1 - d29_4 = 0
b29 - d28_29 - d30_29 = 0
b30 - d30_28 - d30_29 = 0
b30 - d27_30 = 0


\ === context constraints ===

\(a)
d1_26 - d1_26.v0 - d1_26.v1 = 0
d2_3 - d2_3.v00 - d2_3.v01 - d2_3.v10 - d2_3.v11 = 0
d2_2 - d2_2.v00 - d2_2.v01 - d2_2.v10 - d2_2.v11 = 0
d3_4 - d3_4.v0 - d3_4.v1 = 0
d3_1 - d3_1.v0 - d3_1.v1 = 0
d5_12 - d5_12.v0 - d5_12.v1 = 0
d6_7 - d6_7.v00 - d6_7.v01 - d6_7.v10 - d6_7.v11 = 0
d6_8 - d6_8.v00 - d6_8.v01 - d6_8.v10 - d6_8.v11 = 0
d7_9 - d7_9.v00 - d7_9.v01 - d7_9.v10 - d7_9.v11 = 0
d8_9 - d8_9.v00 - d8_9.v01 - d8_9.v10 - d8_9.v11 = 0
d9_10 - d9_10.v00 - d9_10.v01 - d9_10.v10 - d9_10.v11 = 0
d9_6 - d9_6.v00 - d9_6.v01 - d9_6.v10 - d9_6.v11 = 0
d10_11 - d10_11.v0 - d10_11.v1 = 0
d10_5 - d10_5.v0 - d10_5.v1 = 0
d12_13 - d12_13.v0 - d12_13.v1 = 0
d12_14 - d12_14.v0 - d12_14.v1 = 0
d13_15 - d13_15.v0 - d13_15.v1 = 0
d14_15 - d14_15.v0 - d14_15.v1 = 0
d15_6 - d15_6.v0 - d15_6.v1 = 0
d15_10 - d15_10.v0 - d15_10.v1 = 0
d17_18 - d17_18.v0 - d17_18.v1 = 0
d17_19 - d17_19.v0 - d17_19.v1 = 0
d18_20 - d18_20.v0 - d18_20.v1 = 0
d19_20 - d19_20.v0 - d19_20.v1 = 0
d20_21 - d20_21.v0 - d20_21.v1 = 0
d20_17 - d20_17.v0 - d20_17.v1 = 0
d26_2 - d26_2.v0 - d26_2.v1 = 0
d26_3 - d26_3.v0 - d26_3.v1 = 0
d28_29 - d28_29.v0 - d28_29.v1 = 0
d28_28 - d28_28.v0 - d28_28.v1 = 0

\(b)
b1.v0 - d1_26.v0 = 0
b1.v1 - d1_26.v1 = 0
b2.v00 - d2_3.v00 - d2_2.v00 = 0
b2.v01 - d2_3.v01 - d2_2.v01 = 0
b2.v10 - d2_3.v10 - d2_2.v10 = 0
b2.v11 - d2_3.v11 - d2_2.v11 = 0
b3.v0 - d3_4.v0 - d3_1.v0 = 0
b3.v1 - d3_4.v1 - d3_1.v1 = 0
b5.v0 - d5_12.v0 = 0
b5.v1 - d5_12.v1 = 0
b6.v00 - d6_7.v00 - d6_8.v00 = 0
b6.v01 - d6_7.v01 - d6_8.v01 = 0
b6.v10 - d6_7.v10 - d6_8.v10 = 0
b6.v11 - d6_7.v11 - d6_8.v11 = 0
b7.v00 - d7_9.v00 = 0
b7.v01 - d7_9.v01 = 0
b7.v10 - d7_9.v10 = 0
b7.v11 - d7_9.v11 = 0
b8.v00 - d8_9.v00 = 0
b8.v01 - d8_9.v01 = 0
b8.v10 - d8_9.v10 = 0
b8.v11 - d8_9.v11 = 0
b9.v00 - d9_10.v00 - d9_6.v00 = 0
b9.v01 - d9_10.v01 - d9_6.v01 = 0
b9.v10 - d9_10.v10 - d9_6.v10 = 0
b9.v11 - d9_10.v11 - d9_6.v11 = 0
b10.v0 - d10_11.v0 - d10_5.v0 = 0
b10.v1 - d10_11.v1 - d10_5.v1 = 0
b12.v0 - d12_13.v0 - d12_14.v0 = 0
b12.v1 - d12_13.v1 - d12_14.v1 = 0
b13.v0 - d13_15.v0 = 0
b13.v1 - d13_15.v1 = 0
b14.v0 - d14_15.v0 = 0
b14.v1 - d14_15.v1 = 0
b15.v0 - d15_6.v0 - d15_10.v0 = 0
b15.v1 - d15_6.v1 - d15_10.v1 = 0
b17.v0 - d17_18.v0 - d17_19.v0 = 0
b17.v1 - d17_18.v1 - d17_19.v1 = 0
b18.v0 - d18_20.v0 = 0
b18.v1 - d18_20.v1 = 0
b19.v0 - d19_20.v0 = 0
b19.v1 - d19_20.v1 = 0
b20.v0 - d20_21.v0 - d20_17.v0 = 0
b20.v1 - d20_21.v1 - d20_17.v1 = 0
b26.v0 - d26_2.v0 - d26_3.v0 = 0
b26.v1 - d26_2.v1 - d26_3.v1 = 0
b28.v0 - d28_29.v0 - d28_28.v0 = 0
b28.v1 - d28_29.v1 - d28_28.v1 = 0

\(c)
b1 - b1.v0 - b1.v1 = 0
b2 - b2.v00 - b2.v01 - b2.v10 - b2.v11 = 0
b3 - b3.v0 - b3.v1 = 0
b5 - b5.v0 - b5.v1 = 0
b6 - b6.v00 - b6.v01 - b6.v10 - b6.v11 = 0
b7 - b7.v00 - b7.v01 - b7.v10 - b7.v11 = 0
b8 - b8.v00 - b8.v01 - b8.v10 - b8.v11 = 0
b9 - b9.v00 - b9.v01 - b9.v10 - b9.v11 = 0
b10 - b10.v0 - b10.v1 = 0
b12 - b12.v0 - b12.v1 = 0
b13 - b13.v0 - b13.v1 = 0
b14 - b14.v0 - b14.v1 = 0
b15 - b15.v0 - b15.v1 = 0
b17 - b17.v0 - b17.v1 = 0
b18 - b18.v0 - b18.v1 = 0
b19 - b19.v0 - b19.v1 = 0
b20 - b20.v0 - b20.v1 = 0
b26 - b26.v0 - b26.v1 = 0
b28 - b28.v0 - b28.v1 = 0

\(d)
b2.v00 - d26_2.v0 = 0
b2.v10 - d26_2.v1 = 0
b1.v0 - d29_1 = 0
b6.v00 - d15_6.v0 = 0
b6.v10 - d15_6.v1 = 0
b5.v0 - d21_5 = 0
b17.v0 - d25_17 = 0
b28.v0 - d30_28 = 0

\(e)
b2.v01 - d2_2.v00 - d2_2.v01 = 0
b2.v01 - 126 d2_2.v00 <= 0
b2.v11 - d2_2.v10 - d2_2.v11 = 0
b2.v11 - 126 d2_2.v10 <= 0
b1.v1 - d3_1.v0 - d3_1.v1 = 0
b1.v1 - 126 d3_1.v0 <= 0
b6.v01 - d9_6.v00 - d9_6.v01 = 0
b6.v01 - 126 d9_6.v00 <= 0
b6.v11 - d9_6.v10 - d9_6.v11 = 0
b6.v11 - 126 d9_6.v10 <= 0
b5.v1 - d10_5.v0 - d10_5.v1 = 0
b5.v1 - 126 d10_5.v0 <= 0
b17.v1 - d20_17.v0 - d20_17.v1 = 0
b17.v1 - 126 d20_17.v0 <= 0
b28.v1 - d28_28.v0 - d28_28.v1 = 0
b28.v1 - 126 d28_28.v0 <= 0

\(f)
d2_3.v0 - d2_3.v00 - d2_3.v01 = 0
d2_3.v1 - d2_3.v10 - d2_3.v11 = 0
d3_4 - d3_4.v0 - d3_4.v1 = 0
d9_10.v0 - d9_10.v00 - d9_10.v01 = 0
d9_10.v1 - d9_10.v10 - d9_10.v11 = 0
d10_11 - d10_11.v0 - d10_11.v1 = 0
d20_21 - d20_21.v0 - d20_21.v1 = 0
d28_29 - d28_29.v0 - d28_29.v1 = 0

\(g)
b3.v0 - d2_3.v0 - d26_3.v0 = 0
b3.v1 - d2_3.v1 - d26_3.v1 = 0
b7.v00 - d6_7.v00 = 0
b7.v01 - d6_7.v01 = 0
b7.v10 - d6_7.v10 = 0
b7.v11 - d6_7.v11 = 0
b8.v00 - d6_8.v00 = 0
b8.v01 - d6_8.v01 = 0
b8.v10 - d6_8.v10 = 0
b8.v11 - d6_8.v11 = 0
b9.v00 - d7_9.v00 - d8_9.v00 = 0
b9.v01 - d7_9.v01 - d8_9.v01 = 0
b9.v10 - d7_9.v10 - d8_9.v10 = 0
b9.v11 - d7_9.v11 - d8_9.v11 = 0
b10.v0 - d9_10.v0 - d15_10.v0 = 0
b10.v1 - d9_10.v1 - d15_10.v1 = 0
b12.v0 - d5_12.v0 = 0
b12.v1 - d5_12.v1 = 0
b13.v0 - d12_13.v0 = 0
b13.v1 - d12_13.v1 = 0
b14.v0 - d12_14.v0 = 0
b14.v1 - d12_14.v1 = 0
b15.v0 - d13_15.v0 - d14_15.v0 = 0
b15.v1 - d13_15.v1 - d14_15.v1 = 0
b18.v0 - d17_18.v0 = 0
b18.v1 - d17_18.v1 = 0
b19.v0 - d17_19.v0 = 0
b19.v1 - d17_19.v1 = 0
b20.v0 - d18_20.v0 - d19_20.v0 = 0
b20.v1 - d18_20.v1 - d19_20.v1 = 0
b26.v0 - d1_26.v0 = 0
b26.v1 - d1_26.v1 = 0

\ === header constraints ===
b0 <= 1
b2 - 127 b1 <= 0
b2 - 127 d26_2 <= 0
b1 - 127 b0 <= 0
b1 - 127 d29_1 <= 0
b6 - 127 b5 <= 0
b6 - 127 d15_6 <= 0
b5 - 127 b0 <= 0
b5 - 127 d21_5 <= 0
b17 - 127 b0 <= 0
b17 - 127 d25_17 <= 0
b28 - 127 b0 <= 0
b28 - 127 d30_28 <= 0

Generals

Sta
b0
d0_27
b1
d1_26
b2
d2_3
d2_2
b3
d3_4
d3_1
b4
d4_16
b5
d5_12
b6
d6_7
d6_8
b7
d7_9
b8
d8_9
b9
d9_10
d9_6
b10
d10_11
d10_5
b11
b12
d12_13
d12_14
b13
d13_15
b14
d14_15
b15
d15_6
d15_10
b16
d16_22
b17
d17_18
d17_19
b18
d18_20
b19
d19_20
b20
d20_21
d20_17
b21
d21_5
d21_11
b22
d22_23
d22_24
b23
d23_25
b24
d24_25
b25
d25_17
d25_21
b26
d26_2
d26_3
b27
d27_30
b28
d28_29
d28_28
b29
d29_1
d29_4
b30
d30_28
d30_29
b0.d0
b2.d0
b6.d0
b11.d0
b11.d1
b11.d2
b11.d3
b12.d0
b17.d0
b22.d0
b26.d0
b28.d0
b30.d0
d0_27
d1_26.v0
d1_26.v1
d2_3.v00
d2_3.v01
d2_3.v10
d2_3.v11
d2_2.v00
d2_2.v01
d2_2.v10
d2_2.v11
d3_4.v0
d3_4.v1
d3_1.v0
d3_1.v1
d4_16
d5_12.v0
d5_12.v1
d6_7.v00
d6_7.v01
d6_7.v10
d6_7.v11
d6_8.v00
d6_8.v01
d6_8.v10
d6_8.v11
d7_9.v00
d7_9.v01
d7_9.v10
d7_9.v11
d8_9.v00
d8_9.v01
d8_9.v10
d8_9.v11
d9_10.v00
d9_10.v01
d9_10.v10
d9_10.v11
d9_6.v00
d9_6.v01
d9_6.v10
d9_6.v11
d10_11.v0
d10_11.v1
d10_5.v0
d10_5.v1
d12_13.v0
d12_13.v1
d12_14.v0
d12_14.v1
d13_15.v0
d13_15.v1
d14_15.v0
d14_15.v1
d15_6.v0
d15_6.v1
d15_10.v0
d15_10.v1
d16_22
d17_18.v0
d17_18.v1
d17_19.v0
d17_19.v1
d18_20.v0
d18_20.v1
d19_20.v0
d19_20.v1
d20_21.v0
d20_21.v1
d20_17.v0
d20_17.v1
d21_5
d21_11
d22_23
d22_24
d23_25
d24_25
d25_17
d25_21
d26_2.v0
d26_2.v1
d26_3.v0
d26_3.v1
d27_30
d28_29.v0
d28_29.v1
d28_28.v0
d28_28.v1
d29_1
d29_4
d30_28
d30_29

End
\ total_cons: 235 	total_vars: 91
