lp_solve/result/cnt.res
set_XLI: Successfully loaded './xli_CPLEX'

Value of objective function: 722985

Actual values of the variables:
dSta_0                          1
d0_27                           1
d1_26.v0                        1
d1_26.v1                      126
d2_3.v00                        0
d2_3.v01                        1
d2_3.v10                        0
d2_3.v11                      126
d2_2.v00                        1
d2_2.v01                      125
d2_2.v10                      126
d2_2.v11                    15750
d3_4.v0                         0
d3_4.v1                         1
d3_1.v0                         1
d3_1.v1                       125
d4_16                           1
d5_12.v0                        1
d5_12.v1                      126
d6_7.v00                        1
d6_7.v01                      126
d6_7.v10                      126
d6_7.v11                    15876
d6_8.v00                        0
d6_8.v01                        0
d6_8.v10                        0
d6_8.v11                        0
d7_9.v00                        1
d7_9.v01                      126
d7_9.v10                      126
d7_9.v11                    15876
d8_9.v00                        0
d8_9.v01                        0
d8_9.v10                        0
d8_9.v11                        0
d9_10.v00                       0
d9_10.v01                       1
d9_10.v10                       0
d9_10.v11                     126
d9_6.v00                        1
d9_6.v01                      125
d9_6.v10                      126
d9_6.v11                    15750
d10_11.v0                       0
d10_11.v1                       1
d10_5.v0                        1
d10_5.v1                      125
d12_13.v0                       1
d12_13.v1                     126
d12_14.v0                       0
d12_14.v1                       0
d13_15.v0                       1
d13_15.v1                     126
d14_15.v0                       0
d14_15.v1                       0
d15_6.v0                        1
d15_6.v1                      126
d15_10.v0                       0
d15_10.v1                       0
d16_22                          1
d17_18.v0                       1
d17_18.v1                     126
d17_19.v0                       0
d17_19.v1                       0
d18_20.v0                       1
d18_20.v1                     126
d19_20.v0                       0
d19_20.v1                       0
d20_21.v0                       0
d20_21.v1                       1
d20_17.v0                       1
d20_17.v1                     125
d21_5                           1
d21_11                          0
d22_23                          0
d22_24                          1
d23_25                          0
d24_25                          1
d25_17                          1
d25_21                          0
d26_2.v0                        1
d26_2.v1                      126
d26_3.v0                        0
d26_3.v1                        0
d27_30                          1
d28_29.v0                       0
d28_29.v1                       1
d28_28.v0                       1
d28_28.v1                     125
d29_1                           1
d29_4                           0
d30_28                          1
d30_29                          0
b0                              1
b1                            127
d1_26                         127
d3_1                          126
b2                          16129
d2_3                          127
d2_2                        16002
d26_2                         127
b3                            127
d3_4                            1
d26_3                           0
b4                              1
b5                            127
d5_12                         127
d10_5                         126
b6                          16129
d6_7                        16129
d6_8                            0
d9_6                        16002
d15_6                         127
b7                          16129
d7_9                        16129
b8                              0
d8_9                            0
b9                          16129
d9_10                         127
b10                           127
d10_11                          1
d15_10                          0
b11                             1
b12                           127
d12_13                        127
d12_14                          0
b13                           127
d13_15                        127
b14                             0
d14_15                          0
b15                           127
b16                             1
b17                           127
d17_18                        127
d17_19                          0
d20_17                        126
b18                           127
d18_20                        127
b19                             0
d19_20                          0
b20                           127
d20_21                          1
b21                             1
b22                             1
b23                             0
b24                             1
b25                             1
b26                           127
b27                             1
b28                           127
d28_29                          1
d28_28                        126
b29                             1
b30                             1
b1.v0                           1
b1.v1                         126
b2.v00                          1
b2.v01                        126
b2.v10                        126
b2.v11                      15876
b3.v0                           1
b3.v1                         126
b5.v0                           1
b5.v1                         126
b6.v00                          1
b6.v01                        126
b6.v10                        126
b6.v11                      15876
b7.v00                          1
b7.v01                        126
b7.v10                        126
b7.v11                      15876
b8.v00                          0
b8.v01                          0
b8.v10                          0
b8.v11                          0
b9.v00                          1
b9.v01                        126
b9.v10                        126
b9.v11                      15876
b10.v0                          1
b10.v1                        126
b12.v0                          1
b12.v1                        126
b13.v0                          1
b13.v1                        126
b14.v0                          0
b14.v1                          0
b15.v0                          1
b15.v1                        126
b17.v0                          1
b17.v1                        126
b18.v0                          1
b18.v1                        126
b19.v0                          0
b19.v1                          0
b20.v0                          1
b20.v1                        126
b26.v0                          1
b26.v1                        126
b28.v0                          1
b28.v1                        126
d2_3.v0                         1
d2_3.v1                       126
d9_10.v0                        1
d9_10.v1                      126
